100
1724 561
1796 671
1358 572
1337 33
1582 541
279 881
738 810
612 866
840 82
551 876
790 280
67 115
911 220
1205 194
1544 82
842 65
400 259
862 519
254 832
995 794
614 965
785 988
1567 185
721 762
938 816
427 383
688 607
1289 706
1626 18
672 192
524 809
38 663
1629 239
724 120
379 282
30 948
986 178
612 321
1119 61
480 919
909 312
1339 319
1080 211
568 922
1146 67
127 913
1135 724
376 162
1088 804
796 785
518 961
23 958
401 781
641 824
653 170
1364 45
644 707
379 248
679 240
23 329
334 220
1302 38
1203 213
965 284
471 280
435 78
1709 23
1170 578
866 27
160 282
29 817
1788 912
705 201
640 533
1235 428
1764 1
993 757
169 428
1374 842
171 267
1298 200
461 327
209 632
868 965
1115 304
1296 627
754 557
1458 3
308 650
258 624
471 734
1499 155
1364 390
1228 44
1131 737
1515 507
1141 444
489 237
1412 231
1380 234
